(set-logic QF_LIA)
(declare-fun x0 () Int)
(declare-fun x1 () Int)
(declare-fun x2 () Int)
(declare-fun x3 () Int)
(declare-fun x4 () Int)
(declare-fun x5 () Int)
(declare-fun x6 () Int)
(declare-fun x7 () Int)
(declare-fun x8 () Int)
(declare-fun x9 () Int)
(declare-fun A0 () Bool)
(declare-fun A1 () Bool)
(declare-fun A2 () Bool)
(declare-fun A3 () Bool)
(declare-fun A4 () Bool)
(declare-fun A5 () Bool)
(declare-fun A6 () Bool)
(declare-fun A7 () Bool)
(declare-fun A8 () Bool)
(declare-fun A9 () Bool)
(assert (let ((.def_0 (* (- 1) x3))) (let ((.def_1 (* (- 1) x4))) (let ((.def_2 (+ .def_1 .def_0))) (let ((.def_3 (< .def_2 (- 1)))) (let ((.def_4 (not .def_3))) (let ((.def_5 (* 1 x0))) (let ((.def_6 (* (- 1) x8))) (let ((.def_7 (+ .def_6 .def_5))) (let ((.def_8 (< .def_7 1))) (let ((.def_9 (= .def_8 .def_4))) (let ((.def_10 (* (- 1) x6))) (let ((.def_11 (+ .def_10 .def_6))) (let ((.def_12 (< .def_11 (- 1)))) (let ((.def_13 (not .def_12))) (let ((.def_14 (* 1 x1))) (let ((.def_15 (< .def_14 1))) (let ((.def_16 (= .def_15 .def_13))) (let ((.def_17 (not .def_16))) (let ((.def_18 (or .def_17 .def_9))) (let ((.def_19 (* 1 x8))) (let ((.def_20 (+ .def_19 .def_10))) (let ((.def_21 (< .def_20 (- 1)))) (let ((.def_22 (not .def_21))) (let ((.def_23 (= A0 .def_22))) (let ((.def_24 (* 1 x3))) (let ((.def_25 (+ .def_24 .def_14))) (let ((.def_26 (< .def_25 1))) (let ((.def_27 (= .def_26 A9))) (let ((.def_28 (not .def_27))) (let ((.def_29 (= .def_28 .def_23))) (let ((.def_30 (not .def_29))) (let ((.def_31 (and .def_30 .def_18))) (let ((.def_32 (not .def_31))) (let ((.def_33 (* 1 x4))) (let ((.def_34 (+ .def_19 .def_33))) (let ((.def_35 (< .def_34 1))) (let ((.def_36 (and .def_35 A9))) (let ((.def_37 (not .def_36))) (let ((.def_38 (< .def_1 (- 1)))) (let ((.def_39 (or A4 .def_38))) (let ((.def_40 (and .def_39 .def_37))) (let ((.def_41 (not .def_40))) (let ((.def_42 (not A4))) (let ((.def_43 (* (- 1) x9))) (let ((.def_44 (+ .def_10 .def_43))) (let ((.def_45 (< .def_44 (- 1)))) (let ((.def_46 (and .def_45 .def_42))) (let ((.def_47 (+ .def_24 .def_10))) (let ((.def_48 (< .def_47 1))) (let ((.def_49 (and .def_48 A2))) (let ((.def_50 (and .def_49 .def_46))) (let ((.def_51 (not .def_50))) (let ((.def_52 (and .def_51 .def_41))) (let ((.def_53 (or .def_52 .def_32))) (let ((.def_54 (* (- 1) x1))) (let ((.def_55 (+ .def_54 .def_0))) (let ((.def_56 (< .def_55 (- 1)))) (let ((.def_57 (not .def_56))) (let ((.def_58 (and A3 .def_57))) (let ((.def_59 (and A3 A0))) (let ((.def_60 (not .def_59))) (let ((.def_61 (= .def_60 .def_58))) (let ((.def_62 (* (- 1) x2))) (let ((.def_63 (+ .def_6 .def_62))) (let ((.def_64 (< .def_63 (- 1)))) (let ((.def_65 (+ .def_1 .def_10))) (let ((.def_66 (< .def_65 (- 1)))) (let ((.def_67 (and .def_66 .def_64))) (let ((.def_68 (not .def_67))) (let ((.def_69 (* 1 x2))) (let ((.def_70 (+ .def_10 .def_69))) (let ((.def_71 (< .def_70 (- 1)))) (let ((.def_72 (not .def_71))) (let ((.def_73 (not A9))) (let ((.def_74 (and .def_73 .def_72))) (let ((.def_75 (or .def_74 .def_68))) (let ((.def_76 (= .def_75 .def_61))) (let ((.def_77 (+ .def_1 .def_43))) (let ((.def_78 (< .def_77 (- 1)))) (let ((.def_79 (and .def_78 .def_73))) (let ((.def_80 (not .def_79))) (let ((.def_81 (and .def_73 A8))) (let ((.def_82 (or .def_81 .def_80))) (let ((.def_83 (not A1))) (let ((.def_84 (* (- 1) x0))) (let ((.def_85 (< .def_84 (- 1)))) (let ((.def_86 (and .def_85 .def_83))) (let ((.def_87 (not .def_86))) (let ((.def_88 (* 1 x9))) (let ((.def_89 (+ .def_24 .def_88))) (let ((.def_90 (< .def_89 1))) (let ((.def_91 (* 1 x6))) (let ((.def_92 (+ .def_88 .def_91))) (let ((.def_93 (< .def_92 1))) (let ((.def_94 (and .def_93 .def_90))) (let ((.def_95 (not .def_94))) (let ((.def_96 (or .def_95 .def_87))) (let ((.def_97 (or .def_96 .def_82))) (let ((.def_98 (not .def_97))) (let ((.def_99 (and .def_98 .def_76))) (let ((.def_100 (not .def_99))) (let ((.def_101 (or .def_100 .def_53))) (let ((.def_102 (not .def_101))) (let ((.def_103 (+ .def_69 .def_5))) (let ((.def_104 (< .def_103 1))) (let ((.def_105 (+ .def_19 .def_84))) (let ((.def_106 (< .def_105 (- 1)))) (let ((.def_107 (not .def_106))) (let ((.def_108 (and .def_107 .def_104))) (let ((.def_109 (not .def_108))) (let ((.def_110 (+ .def_5 .def_0))) (let ((.def_111 (< .def_110 1))) (let ((.def_112 (not .def_111))) (let ((.def_113 (not A7))) (let ((.def_114 (and .def_113 .def_112))) (let ((.def_115 (not .def_114))) (let ((.def_116 (= .def_115 .def_109))) (let ((.def_117 (+ .def_91 .def_6))) (let ((.def_118 (< .def_117 (- 1)))) (let ((.def_119 (not .def_118))) (let ((.def_120 (< .def_24 (- 1)))) (let ((.def_121 (and .def_120 .def_119))) (let ((.def_122 (not .def_121))) (let ((.def_123 (< .def_43 1))) (let ((.def_124 (not .def_123))) (let ((.def_125 (or .def_124 A7))) (let ((.def_126 (not .def_125))) (let ((.def_127 (or .def_126 .def_122))) (let ((.def_128 (not .def_127))) (let ((.def_129 (or .def_128 .def_116))) (let ((.def_130 (and .def_42 .def_71))) (let ((.def_131 (< .def_91 1))) (let ((.def_132 (+ .def_91 .def_0))) (let ((.def_133 (< .def_132 1))) (let ((.def_134 (not .def_133))) (let ((.def_135 (or .def_134 .def_131))) (let ((.def_136 (not .def_135))) (let ((.def_137 (or .def_136 .def_130))) (let ((.def_138 (not .def_137))) (let ((.def_139 (* (- 1) x7))) (let ((.def_140 (+ .def_10 .def_139))) (let ((.def_141 (< .def_140 1))) (let ((.def_142 (not A0))) (let ((.def_143 (and .def_142 .def_141))) (let ((.def_144 (or A1 A4))) (let ((.def_145 (= .def_144 .def_143))) (let ((.def_146 (or .def_145 .def_138))) (let ((.def_147 (not .def_146))) (let ((.def_148 (and .def_147 .def_129))) (let ((.def_149 (not .def_148))) (let ((.def_150 (< .def_6 (- 1)))) (let ((.def_151 (and .def_113 .def_150))) (let ((.def_152 (not .def_151))) (let ((.def_153 (+ .def_62 .def_84))) (let ((.def_154 (< .def_153 (- 1)))) (let ((.def_155 (not .def_154))) (let ((.def_156 (+ .def_24 .def_84))) (let ((.def_157 (< .def_156 1))) (let ((.def_158 (or .def_157 .def_155))) (let ((.def_159 (not .def_158))) (let ((.def_160 (or .def_159 .def_152))) (let ((.def_161 (not .def_160))) (let ((.def_162 (< .def_54 (- 1)))) (let ((.def_163 (or A4 .def_162))) (let ((.def_164 (not .def_163))) (let ((.def_165 (+ .def_69 .def_54))) (let ((.def_166 (< .def_165 (- 1)))) (let ((.def_167 (not .def_166))) (let ((.def_168 (< .def_10 1))) (let ((.def_169 (not .def_168))) (let ((.def_170 (and .def_169 .def_167))) (let ((.def_171 (or .def_170 .def_164))) (let ((.def_172 (and .def_171 .def_161))) (let ((.def_173 (not .def_172))) (let ((.def_174 (or .def_162 A0))) (let ((.def_175 (not .def_131))) (let ((.def_176 (+ .def_33 .def_19))) (let ((.def_177 (< .def_176 (- 1)))) (let ((.def_178 (and .def_177 .def_175))) (let ((.def_179 (and .def_178 .def_174))) (let ((.def_180 (* (- 1) x5))) (let ((.def_181 (+ .def_180 .def_5))) (let ((.def_182 (< .def_181 1))) (let ((.def_183 (and A0 .def_182))) (let ((.def_184 (not .def_183))) (let ((.def_185 (< .def_5 (- 1)))) (let ((.def_186 (or .def_185 A8))) (let ((.def_187 (not .def_186))) (let ((.def_188 (and .def_187 .def_184))) (let ((.def_189 (not .def_188))) (let ((.def_190 (and .def_189 .def_179))) (let ((.def_191 (or .def_190 .def_173))) (let ((.def_192 (not .def_191))) (let ((.def_193 (or .def_192 .def_149))) (let ((.def_194 (or .def_193 .def_102))) (let ((.def_195 (not .def_194))) (let ((.def_196 (* 1 x5))) (let ((.def_197 (+ .def_84 .def_196))) (let ((.def_198 (< .def_197 1))) (let ((.def_199 (not .def_198))) (let ((.def_200 (or A1 .def_199))) (let ((.def_201 (< .def_117 1))) (let ((.def_202 (< .def_65 1))) (let ((.def_203 (and .def_202 .def_201))) (let ((.def_204 (not .def_203))) (let ((.def_205 (or .def_204 .def_200))) (let ((.def_206 (not .def_205))) (let ((.def_207 (< .def_139 (- 1)))) (let ((.def_208 (not .def_207))) (let ((.def_209 (+ .def_69 .def_84))) (let ((.def_210 (< .def_209 (- 1)))) (let ((.def_211 (not .def_210))) (let ((.def_212 (and .def_211 .def_208))) (let ((.def_213 (+ .def_62 .def_88))) (let ((.def_214 (< .def_213 (- 1)))) (let ((.def_215 (not .def_214))) (let ((.def_216 (or A9 .def_215))) (let ((.def_217 (not .def_216))) (let ((.def_218 (and .def_217 .def_212))) (let ((.def_219 (not .def_218))) (let ((.def_220 (and .def_219 .def_206))) (let ((.def_221 (not .def_220))) (let ((.def_222 (< .def_5 1))) (let ((.def_223 (or A3 .def_222))) (let ((.def_224 (+ .def_88 .def_0))) (let ((.def_225 (< .def_224 (- 1)))) (let ((.def_226 (or .def_150 .def_225))) (let ((.def_227 (or .def_226 .def_223))) (let ((.def_228 (and A0 .def_73))) (let ((.def_229 (+ .def_10 .def_14))) (let ((.def_230 (< .def_229 1))) (let ((.def_231 (+ .def_196 .def_43))) (let ((.def_232 (< .def_231 (- 1)))) (let ((.def_233 (not .def_232))) (let ((.def_234 (and .def_233 .def_230))) (let ((.def_235 (or .def_234 .def_228))) (let ((.def_236 (not .def_235))) (let ((.def_237 (and .def_236 .def_227))) (let ((.def_238 (and .def_237 .def_221))) (let ((.def_239 (+ .def_54 .def_88))) (let ((.def_240 (< .def_239 1))) (let ((.def_241 (not .def_240))) (let ((.def_242 (and A1 .def_241))) (let ((.def_243 (* 1 x7))) (let ((.def_244 (+ .def_243 .def_69))) (let ((.def_245 (< .def_244 1))) (let ((.def_246 (not .def_245))) (let ((.def_247 (< .def_91 (- 1)))) (let ((.def_248 (and .def_247 .def_246))) (let ((.def_249 (or .def_248 .def_242))) (let ((.def_250 (not .def_249))) (let ((.def_251 (+ .def_6 .def_1))) (let ((.def_252 (< .def_251 (- 1)))) (let ((.def_253 (or .def_252 .def_38))) (let ((.def_254 (not .def_253))) (let ((.def_255 (< .def_33 (- 1)))) (let ((.def_256 (not A6))) (let ((.def_257 (or .def_256 .def_255))) (let ((.def_258 (not .def_257))) (let ((.def_259 (= .def_258 .def_254))) (let ((.def_260 (and .def_259 .def_250))) (let ((.def_261 (not .def_260))) (let ((.def_262 (and A7 A0))) (let ((.def_263 (not .def_262))) (let ((.def_264 (not A5))) (let ((.def_265 (+ .def_62 .def_14))) (let ((.def_266 (< .def_265 (- 1)))) (let ((.def_267 (or .def_266 .def_264))) (let ((.def_268 (not .def_267))) (let ((.def_269 (and .def_268 .def_263))) (let ((.def_270 (not A3))) (let ((.def_271 (+ .def_14 .def_139))) (let ((.def_272 (< .def_271 1))) (let ((.def_273 (not .def_272))) (let ((.def_274 (and .def_273 .def_270))) (let ((.def_275 (+ .def_84 .def_1))) (let ((.def_276 (< .def_275 (- 1)))) (let ((.def_277 (or A5 .def_276))) (let ((.def_278 (not .def_277))) (let ((.def_279 (or .def_278 .def_274))) (let ((.def_280 (not .def_279))) (let ((.def_281 (and .def_280 .def_269))) (let ((.def_282 (not .def_281))) (let ((.def_283 (and .def_282 .def_261))) (let ((.def_284 (or .def_283 .def_238))) (let ((.def_285 (+ .def_91 .def_62))) (let ((.def_286 (< .def_285 (- 1)))) (let ((.def_287 (and .def_286 .def_208))) (let ((.def_288 (+ .def_19 .def_43))) (let ((.def_289 (< .def_288 (- 1)))) (let ((.def_290 (not .def_289))) (let ((.def_291 (< .def_62 1))) (let ((.def_292 (not .def_291))) (let ((.def_293 (or .def_292 .def_290))) (let ((.def_294 (and .def_293 .def_287))) (let ((.def_295 (+ .def_243 .def_196))) (let ((.def_296 (< .def_295 1))) (let ((.def_297 (or .def_142 .def_296))) (let ((.def_298 (+ .def_243 .def_14))) (let ((.def_299 (< .def_298 (- 1)))) (let ((.def_300 (not .def_299))) (let ((.def_301 (+ .def_5 .def_24))) (let ((.def_302 (< .def_301 (- 1)))) (let ((.def_303 (or .def_302 .def_300))) (let ((.def_304 (or .def_303 .def_297))) (let ((.def_305 (or .def_304 .def_294))) (let ((.def_306 (= A9 .def_232))) (let ((.def_307 (not A2))) (let ((.def_308 (or .def_307 .def_264))) (let ((.def_309 (not .def_308))) (let ((.def_310 (or .def_309 .def_306))) (let ((.def_311 (not .def_310))) (let ((.def_312 (+ .def_19 .def_69))) (let ((.def_313 (< .def_312 1))) (let ((.def_314 (and .def_313 .def_73))) (let ((.def_315 (not A8))) (let ((.def_316 (= A4 .def_315))) (let ((.def_317 (not .def_316))) (let ((.def_318 (and .def_317 .def_314))) (let ((.def_319 (= .def_318 .def_311))) (let ((.def_320 (= .def_319 .def_305))) (let ((.def_321 (not .def_320))) (let ((.def_322 (or .def_270 A0))) (let ((.def_323 (not .def_322))) (let ((.def_324 (+ .def_62 .def_24))) (let ((.def_325 (< .def_324 1))) (let ((.def_326 (and .def_325 .def_292))) (let ((.def_327 (not .def_326))) (let ((.def_328 (or .def_327 .def_323))) (let ((.def_329 (not .def_328))) (let ((.def_330 (+ .def_196 .def_84))) (let ((.def_331 (< .def_330 (- 1)))) (let ((.def_332 (not .def_331))) (let ((.def_333 (and A9 .def_332))) (let ((.def_334 (or A2 A8))) (let ((.def_335 (and .def_334 .def_333))) (let ((.def_336 (not .def_335))) (let ((.def_337 (= .def_336 .def_329))) (let ((.def_338 (not .def_337))) (let ((.def_339 (or .def_142 .def_264))) (let ((.def_340 (not .def_339))) (let ((.def_341 (or A2 .def_207))) (let ((.def_342 (not .def_341))) (let ((.def_343 (or .def_342 .def_340))) (let ((.def_344 (not .def_343))) (let ((.def_345 (+ .def_10 .def_84))) (let ((.def_346 (< .def_345 (- 1)))) (let ((.def_347 (not .def_346))) (let ((.def_348 (or .def_307 .def_347))) (let ((.def_349 (not .def_348))) (let ((.def_350 (< .def_69 (- 1)))) (let ((.def_351 (< .def_19 (- 1)))) (let ((.def_352 (not .def_351))) (let ((.def_353 (and .def_352 .def_350))) (let ((.def_354 (not .def_353))) (let ((.def_355 (or .def_354 .def_349))) (let ((.def_356 (or .def_355 .def_344))) (let ((.def_357 (not .def_356))) (let ((.def_358 (and .def_357 .def_338))) (let ((.def_359 (or .def_358 .def_321))) (let ((.def_360 (not .def_359))) (let ((.def_361 (and .def_360 .def_284))) (let ((.def_362 (not .def_361))) (let ((.def_363 (and .def_362 .def_195))) (let ((.def_364 (not .def_363))) (let ((.def_365 (<= x9 1))) (let ((.def_366 (<= 0 x9))) (let ((.def_367 (<= x8 1))) (let ((.def_368 (<= 0 x8))) (let ((.def_369 (<= x7 1))) (let ((.def_370 (<= 0 x7))) (let ((.def_371 (<= x6 1))) (let ((.def_372 (<= 0 x6))) (let ((.def_373 (<= x5 1))) (let ((.def_374 (<= 0 x5))) (let ((.def_375 (<= x4 1))) (let ((.def_376 (<= 0 x4))) (let ((.def_377 (<= x3 1))) (let ((.def_378 (<= 0 x3))) (let ((.def_379 (<= x2 1))) (let ((.def_380 (<= 0 x2))) (let ((.def_381 (<= x1 1))) (let ((.def_382 (<= 0 x1))) (let ((.def_383 (<= x0 1))) (let ((.def_384 (<= 0 x0))) (let ((.def_385 (and .def_384 .def_383 .def_382 .def_381 .def_380 .def_379 .def_378 .def_377 .def_376 .def_375 .def_374 .def_373 .def_372 .def_371 .def_370 .def_369 .def_368 .def_367 .def_366 .def_365 .def_364))) .def_385)))))))))))))))))))))))))))))))))))))))))))))))))))))))))))))))))))))))))))))))))))))))))))))))))))))))))))))))))))))))))))))))))))))))))))))))))))))))))))))))))))))))))))))))))))))))))))))))))))))))))))))))))))))))))))))))))))))))))))))))))))))))))))))))))))))))))))))))))))))))))))))))))))))))))))))))))))))))))))))))))))))))))))))))))))))))))))))))))))))))))))))))))))))))))))))))))))
(check-sat)
